(set-info :smt-lib-version 2.6)
(set-info :category "crafted")
(set-logic QF_FF)
(define-sort FF0 () (_ FiniteField 52435875175126190479447740508185965837690552500527637822603658699938581184513))
(declare-fun x7 () Bool)
(declare-fun x6 () Bool)
(declare-fun x5 () Bool)
(declare-fun x4 () Bool)
(declare-fun x3 () Bool)
(declare-fun x2 () Bool)
(declare-fun x1 () Bool)
(declare-fun x0 () Bool)
(declare-fun out () FF0)
(declare-fun _14 () FF0)
(declare-fun _7 () FF0)
(declare-fun _13 () FF0)
(declare-fun _6 () FF0)
(declare-fun _12 () FF0)
(declare-fun _5 () FF0)
(declare-fun _11 () FF0)
(declare-fun _4 () FF0)
(declare-fun _10 () FF0)
(declare-fun _3 () FF0)
(declare-fun _9 () FF0)
(declare-fun _2 () FF0)
(declare-fun _8 () FF0)
(declare-fun _1 () FF0)
(declare-fun _0 () FF0)
(assert 
  (let ((let0 x7))
  (let ((let1 x6))
  (let ((let2 x5))
  (let ((let3 x4))
  (let ((let4 x3))
  (let ((let5 x2))
  (let ((let6 x1))
  (let ((let7 x0))
  (let ((let8 (and let7 let6 let5 let4 let3 let2 let1 let0)))
  (let ((let9 out))
  (let ((let10 (as ff1 FF0)))
  (let ((let11 (= let10 let9)))
  (let ((let12 (= let11 let8)))
  (let ((let13 (as ff0 FF0)))
  (let ((let14 (= let13 let9)))
  (let ((let15 (or let11 let14)))
  (let ((let16 (and let15 let12)))
  (let ((let17 _14))
  (let ((let18 _7))
  (let ((let19 _13))
  (let ((let20 (ff.mul let19 let18)))
  (let ((let21 (= let20 let17)))
  (let ((let22 _6))
  (let ((let23 _12))
  (let ((let24 (ff.mul let23 let22)))
  (let ((let25 (= let24 let19)))
  (let ((let26 _5))
  (let ((let27 _11))
  (let ((let28 (ff.mul let27 let26)))
  (let ((let29 (= let28 let23)))
  (let ((let30 _4))
  (let ((let31 _10))
  (let ((let32 (ff.mul let31 let30)))
  (let ((let33 (= let32 let27)))
  (let ((let34 _3))
  (let ((let35 _9))
  (let ((let36 (ff.mul let35 let34)))
  (let ((let37 (= let36 let31)))
  (let ((let38 _2))
  (let ((let39 _8))
  (let ((let40 (ff.mul let39 let38)))
  (let ((let41 (= let40 let35)))
  (let ((let42 _1))
  (let ((let43 _0))
  (let ((let44 (ff.mul let43 let42)))
  (let ((let45 (= let44 let39)))
  (let ((let46 (ff.mul let18 let18)))
  (let ((let47 (= let46 let18)))
  (let ((let48 (ff.mul let22 let22)))
  (let ((let49 (= let48 let22)))
  (let ((let50 (ff.mul let26 let26)))
  (let ((let51 (= let50 let26)))
  (let ((let52 (ff.mul let30 let30)))
  (let ((let53 (= let52 let30)))
  (let ((let54 (ff.mul let34 let34)))
  (let ((let55 (= let54 let34)))
  (let ((let56 (ff.mul let38 let38)))
  (let ((let57 (= let56 let38)))
  (let ((let58 (ff.mul let42 let42)))
  (let ((let59 (= let58 let42)))
  (let ((let60 (ff.mul let43 let43)))
  (let ((let61 (= let60 let43)))
  (let ((let62 (and let61 let59 let57 let55 let53 let51 let49 let47 let45 let41 let37 let33 let29 let25 let21)))
  (let ((let63 (ite let7 let10 let13)))
  (let ((let64 (= let43 let63)))
  (let ((let65 (ite let2 let10 let13)))
  (let ((let66 (= let26 let65)))
  (let ((let67 (ite let6 let10 let13)))
  (let ((let68 (= let42 let67)))
  (let ((let69 (ite let4 let10 let13)))
  (let ((let70 (= let34 let69)))
  (let ((let71 (ite let5 let10 let13)))
  (let ((let72 (= let38 let71)))
  (let ((let73 (ite let3 let10 let13)))
  (let ((let74 (= let30 let73)))
  (let ((let75 (ite let0 let10 let13)))
  (let ((let76 (= let18 let75)))
  (let ((let77 (ite let1 let10 let13)))
  (let ((let78 (= let22 let77)))
  (let ((let79 (and let78 let76 let74 let72 let70 let68 let66 let64)))
  (let ((let80 (and let79 let62)))
  (let ((let81 (=> let80 let16)))
  (let ((let82 (not let81)))
  let82
)))))))))))))))))))))))))))))))))))))))))))))))))))))))))))))))))))))))))))))))))))
)
(check-sat)
